 $CONTRL  SCFTYP=ROHF RUNTYP=MD DFTTYP=BHHLYP ICHARG=0
 TDDFT=MRSF MAXIT=200 MULT=3 units=bohr $END
 $TDDFT  NSTATE=2 IROOT=2 MULT=1  $END
 $SCF FDIFF=.F. DAMP=.T. SHIFT=.T. DIIS=.t.
  SOSCF=.F. RSTRCT=.F.  $END
 $BASIS  GBASIS=N31 NGAUSS=6 NDFUNC=1  $END
 $STATPT  NSTEP=150  $END
 $SYSTEM  TIMLIM=999999100 MWORDS=500  $END
 $DATA
 2-trnas-UCA S1 NAMD 96
 C1
C 6.0 2.40383741 0.26363696 -0.59996478
N 7.0 0.00917675 0.17678068 -0.09855728
C 6.0 -0.09348387 -0.06955008 2.59182704
C 6.0 2.43633695 -0.26309952 3.49370945
N 7.0 3.93607865 0.00161525 1.52164127
C 6.0 -2.34557422 -0.15277929 4.33307929
C 6.0 -4.64889211 0.11996943 3.21859864
C 6.0 -7.03733484 -0.22196714 4.89117690
O 8.0 -9.00524793 -0.89818112 3.90761418
O 8.0 -6.95979425 0.36000474 7.26189873
H 1.0 -5.08072924 0.43579863 1.23642903
H 1.0 -2.18598897 -0.83825122 6.55243615
H 1.0 3.41178406 -0.53242730 5.11810121
H 1.0 5.94063264 -0.36481243 1.16418395
H 1.0 3.18475017 0.60692253 -2.19410418
H 1.0 -5.42639661 1.28130337 7.54990883
 $END
 $MD  read=.t. mbt=.f. mbr=.f.
 ttotal=0 dt=5e-16 nsteps=4000 mdint=vverlet
 nvtnh=0 Batht(1)=300.0 rstemp=.f. jevery=1 kevery=1
 thrshe=10 namd=.t. ndtlf=2
 TVELQM(1)=
  5.196155e+00  1.054779e+01 -6.994504e+00
  -1.527911e+01  -5.002553e+00 -7.480472e+00
  -7.976196e+00  1.403622e+01 -6.037906e+00
  1.089014e+00  -3.228802e+00 1.669352e+01
  1.525563e+01  -5.668687e+00 4.610017e+00
  -3.077286e+00  1.630173e+00 -3.544733e+00
  -6.823268e+00  -1.365625e+01 -9.686737e+00
  -3.619561e+00  2.365801e+00 1.882665e+01
  7.628805e+00  8.346160e+00 1.663122e+00
  -3.035407e+00  -1.278196e+01 -1.970205e+00
  -8.569858e+00  2.267607e+01 -2.577324e+01
  6.193462e+01  2.217266e+01 2.786821e+01
  -2.715896e+01  -1.185493e+01 -8.345809e+01
  -1.874376e+00  2.261881e+01 3.827408e+01
  1.929662e+01  -6.087243e+01 5.641377e+01
  6.586378e+01  8.466133e+01 -7.854434e+01
 $END
