 $CONTRL  SCFTYP=ROHF RUNTYP=MD DFTTYP=BHHLYP ICHARG=0
 TDDFT=MRSF MAXIT=200 MULT=3 units=bohr $END
 $TDDFT  NSTATE=2 IROOT=2 MULT=1  $END
 $SCF FDIFF=.F. DAMP=.T. SHIFT=.T. DIIS=.t.
  SOSCF=.F. RSTRCT=.F.  $END
 $BASIS  GBASIS=N31 NGAUSS=6 NDFUNC=1  $END
 $STATPT  NSTEP=150  $END
 $SYSTEM  TIMLIM=999999100 MWORDS=500  $END
 $DATA
 2-trnas-UCA S1 NAMD 216
 C1
C 6.0 2.04640805 -0.13442133 -0.64041216
N 7.0 -0.22951821 -0.10530392 0.21093735
C 6.0 0.02236787 0.01544610 2.81567315
C 6.0 2.51762125 0.06621387 3.39078807
N 7.0 3.78017903 0.10744885 1.42167998
C 6.0 -2.20982567 0.14516016 4.34173029
C 6.0 -4.49654483 0.11023311 3.51330889
C 6.0 -7.00097140 -0.04165259 4.81362890
O 8.0 -8.85760378 -0.57403117 3.48411020
O 8.0 -6.91443492 -0.16310807 7.25037657
H 1.0 -4.52736507 0.43341909 1.43630073
H 1.0 -2.12636433 -0.27838290 6.46209752
H 1.0 3.59517933 -0.02057054 5.19799062
H 1.0 5.63655682 -0.04089078 0.93412903
H 1.0 3.08860770 -0.10766734 -2.39291255
H 1.0 -5.35093482 0.44127290 8.12079272
 $END
 $MD  read=.t. mbt=.f. mbr=.f.
 ttotal=0 dt=5e-16 nsteps=4000 mdint=vverlet
 nvtnh=0 Batht(1)=300.0 rstemp=.f. jevery=1 kevery=1
 thrshe=10 namd=.t. ndtlf=2
 TVELQM(1)=
  2.864461e+00  -4.835493e+00 4.416978e+01
  2.488060e+01  7.809384e-01 -7.520325e+00
  -1.462492e+01  -1.275274e+01 -1.105075e+01
  -2.205913e+01  1.339832e+00 -1.507703e+01
  -9.341082e+00  1.469851e+00 -4.067081e+00
  3.703521e+01  -1.150406e+00 9.097333e+00
  -1.979859e+01  -6.206579e-01 -4.881258e+00
  -3.049546e+01  -2.158941e+01 -5.089370e+00
  2.040808e+01  1.441371e+01 9.913949e+00
  1.278796e+01  9.262120e-01 -3.107176e+00
  8.455364e+01  1.738512e+01 -1.171979e+02
  -6.852067e+01  5.064855e+01 3.602780e+01
  -3.052853e+00  7.245054e+01 7.066608e+01
  -1.812095e+02  1.298805e+01 -2.634784e+01
  -2.105392e+00  5.386375e+01 -1.542871e+02
  -1.106870e+01  -1.019801e+01 3.977994e+01
 $END
