$CONTRL  SCFTYP=ROHF RUNTYP=MD DFTTYP=BHHLYP ICHARG=0
 TDDFT=MRSF MAXIT=200 MULT=3 units=bohr $END
 $TDDFT  NSTATE=2 IROOT=2 MULT=1  $END
 $SCF FDIFF=.F. DAMP=.T. SHIFT=.T. DIIS=.t.
  SOSCF=.F. RSTRCT=.F.  $END
 $BASIS  GBASIS=N31 NGAUSS=6 NDFUNC=1  $END
 $STATPT  NSTEP=150  $END
 $SYSTEM  TIMLIM=999999100 MWORDS=500  $END
 $DATA
 2-trnas-UCA S1 NAMD 174
 C1
C 6.0 2.21111776 0.02669903 -0.49574695
N 7.0 -0.15811350 0.35018058 0.10010303
C 6.0 -0.13635976 0.01873112 2.69023915
C 6.0 2.38936921 -0.14649326 3.68453287
N 7.0 3.87198038 -0.18000877 1.47468951
C 6.0 -2.38094955 0.08514677 4.15523001
C 6.0 -4.63862737 0.25986920 3.11089276
C 6.0 -6.98371403 -0.23836231 4.69693671
O 8.0 -8.96876035 -0.93461629 3.90117928
O 8.0 -6.61598157 0.10997584 7.22757808
H 1.0 -4.76026762 0.64104216 0.96151700
H 1.0 -2.00502343 0.09698462 6.11292661
H 1.0 3.08474975 -0.39880190 5.67928570
H 1.0 5.75471279 -0.49417740 1.19786741
H 1.0 3.03892291 0.07331857 -2.27240846
H 1.0 -5.04258644 1.39833527 7.31852267
 $END
 $MD  read=.t. mbt=.f. mbr=.f.
 ttotal=0 dt=5e-16 nsteps=4000 mdint=vverlet
 nvtnh=0 Batht(1)=300.0 rstemp=.f. jevery=1 kevery=1
 thrshe=10 namd=.t. ndtlf=2
 TVELQM(1)=
  2.762554e+00  -9.838005e+00 -2.016830e+01
  1.623475e-01  9.799557e+00 -1.368102e+01
  -9.364440e+00  1.289727e+00 2.581756e+01
  3.280322e+01  -5.740951e+00 -1.345004e+01
  -2.291184e+01  -1.040174e+01 1.712860e+01
  4.800931e+00  1.093562e+00 -1.602751e+01
  2.547443e+01  1.575999e+01 1.059761e+01
  -6.921454e+00  -1.971838e+01 -1.000544e+00
  -1.357927e+01  -7.930101e-01 -6.034599e-01
  -1.188994e+01  -1.657251e+00 -4.415837e+00
  -4.518702e+01  -2.568597e+01 4.402674e+01
  -7.529582e+01  -1.156632e+01 2.956317e+01
  -6.106901e+01  8.082154e+01 -5.283774e+01
  1.503157e+02  4.627455e+01 -2.406411e+01
  2.441662e+00  5.211307e+01 1.197501e+02
  1.593414e+02  1.093299e+02 8.479652e+01
 $END
