 $CONTRL  SCFTYP=ROHF RUNTYP=MD DFTTYP=BHHLYP ICHARG=0
 TDDFT=MRSF MAXIT=200 MULT=3 units=bohr $END
 $TDDFT  NSTATE=2 IROOT=2 MULT=1  $END
 $SCF FDIFF=.F. DAMP=.T. SHIFT=.T. DIIS=.t.
  SOSCF=.F. RSTRCT=.F.  $END
 $BASIS  GBASIS=N31 NGAUSS=6 NDFUNC=1  $END
 $STATPT  NSTEP=150  $END
 $SYSTEM  TIMLIM=999999100 MWORDS=500  $END
 $DATA
 2-trnas-UCA S1 NAMD 132
 C1
C 6.0 2.41934861 -0.06104560 -0.54442310
N 7.0 0.16066584 -0.10242667 -0.11766749
C 6.0 -0.08296526 -0.12796689 2.63195121
C 6.0 2.38363366 0.16981732 3.57459464
N 7.0 3.93025288 0.36516839 1.60468415
C 6.0 -2.43795946 -0.45479847 4.03529811
C 6.0 -4.78400992 0.19291519 3.20830934
C 6.0 -7.13356275 -0.15286857 4.78909775
O 8.0 -9.23007238 -0.51136041 4.08687213
O 8.0 -6.61291622 0.01774632 7.22041421
H 1.0 -4.77475581 1.13187372 1.19605720
H 1.0 -2.19924944 -1.57578732 5.55790159
H 1.0 2.95763454 0.40698947 5.56711310
H 1.0 5.66535826 -0.25189176 1.34809446
H 1.0 3.35886084 -0.13069338 -2.34773183
H 1.0 -4.90100752 0.45947037 7.81685813
 $END
 $MD  read=.t. mbt=.f. mbr=.f.
 ttotal=0 dt=5e-16 nsteps=4000 mdint=vverlet
 nvtnh=0 Batht(1)=300.0 rstemp=.f. jevery=1 kevery=1
 thrshe=10 namd=.t. ndtlf=2
 TVELQM(1)=
  -1.520577e+00  7.775153e+00 8.332724e+00
  -7.711157e+00  -1.025688e+01 -1.803273e+01
  1.077389e+01  -2.569490e+00 6.130263e+00
  -5.412577e+00  4.556645e-01 -8.722863e+00
  8.371668e+00  -8.664075e+00 1.081647e+01
  1.303361e+01  1.298499e+01 2.098442e+01
  -1.592420e+01  4.360977e+00 -1.589964e+01
  -5.610519e+00  -7.561336e+00 1.072234e+01
  -1.140654e+01  3.220162e+00 4.713743e-01
  3.768431e+00  -2.083315e+00 -1.348671e+01
  -1.508187e+01  -2.228713e+01 1.987647e+01
  5.661489e+01  -6.365343e+01 4.920425e+01
  5.383373e+01  2.333964e+01 3.693491e+01
  1.107510e+01  3.961346e+01 -4.606908e+01
  4.794416e+01  5.720822e+01 -9.070664e+01
  1.282157e+01  2.691860e+01 8.083866e+01
 $END
