 $CONTRL  SCFTYP=ROHF RUNTYP=MD DFTTYP=BHHLYP ICHARG=0
 TDDFT=MRSF MAXIT=200 MULT=3 units=bohr $END
 $TDDFT  NSTATE=2 IROOT=2 MULT=1  $END
 $SCF FDIFF=.F. DAMP=.T. SHIFT=.T. DIIS=.t.
  SOSCF=.F. RSTRCT=.F.  $END
 $BASIS  GBASIS=N31 NGAUSS=6 NDFUNC=1  $END
 $STATPT  NSTEP=150  $END
 $SYSTEM  TIMLIM=999999100 MWORDS=500  $END
 $DATA
 2-trnas-UCA S1 NAMD 213
 C1
C 6.0 2.31240454 0.14521436 -0.54691632
N 7.0 -0.09371133 0.33703432 0.06860182
C 6.0 -0.14167752 0.03557595 2.62047284
C 6.0 2.22272172 -0.18572663 3.58354184
N 7.0 3.77526489 -0.01117271 1.71703547
C 6.0 -2.44724943 -0.24477621 4.11941904
C 6.0 -4.71502017 -0.02587217 3.04844417
C 6.0 -6.96074690 -0.15442995 4.69524168
O 8.0 -8.98173139 -0.85030255 3.91474578
O 8.0 -6.39511520 0.32361669 7.24694457
H 1.0 -5.10830842 -0.17858568 1.05007766
H 1.0 -2.29197373 -0.58482813 6.19702957
H 1.0 2.85283031 -0.54206516 5.61824995
H 1.0 5.76971782 -0.08106755 1.67577461
H 1.0 3.11886930 -0.02800224 -2.88957308
H 1.0 -4.84383774 1.03727894 7.73046877
 $END
 $MD  read=.t. mbt=.f. mbr=.f.
 ttotal=0 dt=5e-16 nsteps=4000 mdint=vverlet
 nvtnh=0 Batht(1)=300.0 rstemp=.f. jevery=1 kevery=1
 thrshe=10 namd=.t. ndtlf=2
 TVELQM(1)=
  -4.277922e+00  -1.180664e+01 1.317653e+01
  2.292978e+01  1.233172e+00 -7.062428e+00
  1.284976e+01  -5.143775e+00 2.174973e+01
  5.829505e+00  -1.618556e+00 -2.157060e+01
  -7.006824e+00  1.455059e+01 -3.932680e+00
  -9.133507e+00  -4.337247e+00 -1.101363e+01
  4.099286e+00  7.289103e+00 1.180631e+01
  2.660978e+00  2.670859e+00 -1.934325e+01
  -3.055292e+00  -6.790319e-01 6.657076e+00
  -8.360795e+00  -4.184780e+00 2.217551e+00
  -6.446115e+01  -1.018316e+01 1.339890e+01
  6.430525e+01  1.932469e+01 1.051957e+02
  -6.025467e+01  -7.223440e+01 6.861538e+01
  -6.739155e+01  6.332629e+00 -2.011233e+01
  -1.185780e+02  2.105574e+01 6.530241e+00
  6.267764e+01  4.782382e+01 -9.995867e+01
 $END
